letting initialStacks = [48, 32, 19, 39, 4, 1, 14, 34, 47, 27, 50, 15, 23, 25, 13, 5, 2, 24, 20, 36, 40, 45, 16, 51, 8, 26, 37, 28, 42, 12, 38, 49, 35, 31, 9, 7, 44, 41, 3, 11, 22, 17, 30, 33, 29, 18, 6, 10, 21, 46, 43]
